c 202_3_checker_6cl.cnf
c
c field = 202
c formula set type = 3_checker_6cl
c
p cnf 6 22
396 
398 
400 
-395 
-392 
-404 
397 
399 
401 
-394 
-393 
-405 
396 
398 
400 
-405 
-394 
-406 
397 
399 
401 
-404 
-395 
-407 
398 
400 
404 
-397 
-394 
-406 
399 
401 
405 
-396 
-395 
-407 
398 
400 
404 
-407 
-396 
-408 
399 
401 
405 
-406 
-397 
-409 
400 
404 
406 
-399 
-396 
-408 
401 
405 
407 
-398 
-397 
-409 
400 
404 
406 
-409 
-398 
-410 
401 
405 
407 
-408 
-399 
-411 
404 
406 
408 
-401 
-398 
-410 
405 
407 
409 
-400 
-399 
-411 
404 
406 
408 
-411 
-400 
-412 
405 
407 
409 
-410 
-401 
-413 
312 
342 
372 
-283 
-252 
-432 
313 
343 
373 
-282 
-253 
-433 
306 
338 
370 
-275 
-242 
-434 
307 
339 
371 
-274 
-243 
-435 
318 
346 
374 
-291 
-262 
-430 
319 
347 
375 
-290 
-263 
-431 
